sat
(:SPACER-cex-depth                 2
 :SPACER-inductive-gen             1
 :SPACER-inductive-gen-weaken-fail 1
 :SPACER-max-depth                 2
 :SPACER-max-query-lvl             2
 :SPACER-num-active-lemmas         2
 :SPACER-num-is_invariant          2
 :SPACER-num-lemmas                3
 :SPACER-num-pobs                  2
 :SPACER-num-queries               2
 :SPACER-num-reach-queries         2
 :SPACER-num-reuse-reach-facts     1
 :added-eqs                        130
 :arith-assert-diseq               26
 :arith-assert-lower               132
 :arith-assert-upper               122
 :arith-bound-prop                 24
 :arith-conflicts                  4
 :arith-eq-adapter                 46
 :arith-fixed-eqs                  22
 :arith-num-rows                   36
 :arith-offset-eqs                 2
 :arith-pivots                     40
 :arith-row-summations             86
 :arith-tableau-max-columns        86
 :arith-tableau-max-rows           36
 :conflicts                        18
 :decisions                        76
 :del-clause                       40
 :final-checks                     12
 :iuc_solver.num_proxies           2
 :max-memory                       30.23
 :memory                           30.23
 :mk-bool-var                      300
 :mk-clause                        322
 :num-allocs                       4293637
 :num-checks                       24
 :pool_solver.checks               12
 :pool_solver.checks.sat           6
 :propagations                     340
 :rlimit-count                     5024
 :time                             0.02
 :time.pool_solver.smt.total       0.00
 :time.pool_solver.smt.total.sat   0.00
 :time.spacer.init_rules           0.00
 :time.spacer.solve                0.01
 :time.spacer.solve.propagate      0.00
 :time.spacer.solve.reach          0.01)
(:max-memory   30.23
 :memory       30.23
 :num-allocs   4293637
 :rlimit-count 5024
 :time         0.02
 :total-time   0.04)
